p edge 58 794
e 1 3
e 1 7
e 1 11
e 1 12
e 1 15
e 1 18
e 1 19
e 1 20
e 1 23
e 1 29
e 1 30
e 1 31
e 1 33
e 1 34
e 1 36
e 1 39
e 1 41
e 1 43
e 1 47
e 1 49
e 1 50
e 1 51
e 1 52
e 1 53
e 1 54
e 2 3
e 2 4
e 2 5
e 2 7
e 2 8
e 2 11
e 2 16
e 2 17
e 2 18
e 2 19
e 2 21
e 2 22
e 2 25
e 2 27
e 2 30
e 2 31
e 2 32
e 2 33
e 2 34
e 2 35
e 2 36
e 2 38
e 2 39
e 2 40
e 2 41
e 2 45
e 2 46
e 2 47
e 2 49
e 2 51
e 2 53
e 2 54
e 2 55
e 2 56
e 3 4
e 3 5
e 3 6
e 3 7
e 3 8
e 3 9
e 3 11
e 3 12
e 3 13
e 3 15
e 3 17
e 3 21
e 3 23
e 3 26
e 3 31
e 3 32
e 3 33
e 3 34
e 3 35
e 3 38
e 3 39
e 3 40
e 3 42
e 3 44
e 3 46
e 3 47
e 3 50
e 3 51
e 3 53
e 3 55
e 4 5
e 4 7
e 4 14
e 4 15
e 4 17
e 4 18
e 4 19
e 4 20
e 4 21
e 4 22
e 4 23
e 4 24
e 4 25
e 4 27
e 4 28
e 4 29
e 4 34
e 4 40
e 4 41
e 4 43
e 4 45
e 4 46
e 4 47
e 4 49
e 4 50
e 4 54
e 4 58
e 5 6
e 5 7
e 5 10
e 5 11
e 5 14
e 5 15
e 5 17
e 5 23
e 5 24
e 5 25
e 5 26
e 5 27
e 5 29
e 5 31
e 5 33
e 5 34
e 5 36
e 5 38
e 5 39
e 5 40
e 5 41
e 5 43
e 5 46
e 5 47
e 5 52
e 5 53
e 5 55
e 5 57
e 6 7
e 6 8
e 6 10
e 6 11
e 6 13
e 6 15
e 6 18
e 6 20
e 6 22
e 6 23
e 6 24
e 6 30
e 6 31
e 6 35
e 6 36
e 6 39
e 6 40
e 6 41
e 6 42
e 6 43
e 6 44
e 6 47
e 6 49
e 6 50
e 6 54
e 6 55
e 6 58
e 7 10
e 7 12
e 7 14
e 7 15
e 7 20
e 7 25
e 7 26
e 7 29
e 7 30
e 7 31
e 7 34
e 7 37
e 7 43
e 7 45
e 7 46
e 7 48
e 7 54
e 7 55
e 7 57
e 7 58
e 8 10
e 8 12
e 8 13
e 8 15
e 8 16
e 8 17
e 8 22
e 8 25
e 8 26
e 8 27
e 8 29
e 8 31
e 8 34
e 8 36
e 8 37
e 8 43
e 8 44
e 8 45
e 8 47
e 8 48
e 8 49
e 8 52
e 8 56
e 9 12
e 9 13
e 9 14
e 9 16
e 9 18
e 9 19
e 9 21
e 9 22
e 9 27
e 9 31
e 9 32
e 9 36
e 9 38
e 9 40
e 9 43
e 9 48
e 9 49
e 9 54
e 9 55
e 9 56
e 9 57
e 9 58
e 10 12
e 10 13
e 10 15
e 10 16
e 10 19
e 10 21
e 10 24
e 10 25
e 10 27
e 10 29
e 10 30
e 10 33
e 10 35
e 10 37
e 10 38
e 10 39
e 10 44
e 10 45
e 10 47
e 10 49
e 10 50
e 10 51
e 10 55
e 11 16
e 11 17
e 11 18
e 11 19
e 11 20
e 11 21
e 11 24
e 11 25
e 11 26
e 11 27
e 11 28
e 11 30
e 11 31
e 11 32
e 11 36
e 11 38
e 11 39
e 11 42
e 11 45
e 11 46
e 11 47
e 11 50
e 11 51
e 11 53
e 11 54
e 11 55
e 12 13
e 12 14
e 12 15
e 12 16
e 12 17
e 12 19
e 12 23
e 12 24
e 12 25
e 12 27
e 12 29
e 12 32
e 12 33
e 12 34
e 12 35
e 12 38
e 12 40
e 12 42
e 12 43
e 12 44
e 12 45
e 12 47
e 12 49
e 12 50
e 12 51
e 12 52
e 12 53
e 12 54
e 12 55
e 12 57
e 13 14
e 13 16
e 13 18
e 13 19
e 13 22
e 13 23
e 13 26
e 13 27
e 13 28
e 13 29
e 13 32
e 13 33
e 13 41
e 13 46
e 13 50
e 13 53
e 13 54
e 13 56
e 14 17
e 14 18
e 14 19
e 14 20
e 14 21
e 14 25
e 14 28
e 14 29
e 14 35
e 14 37
e 14 39
e 14 40
e 14 41
e 14 44
e 14 45
e 14 46
e 14 48
e 14 51
e 14 52
e 14 53
e 14 55
e 14 56
e 15 16
e 15 17
e 15 18
e 15 19
e 15 20
e 15 25
e 15 28
e 15 29
e 15 31
e 15 33
e 15 34
e 15 38
e 15 41
e 15 42
e 15 44
e 15 46
e 15 48
e 15 50
e 15 54
e 15 56
e 15 57
e 15 58
e 16 23
e 16 26
e 16 27
e 16 28
e 16 29
e 16 30
e 16 31
e 16 32
e 16 34
e 16 36
e 16 37
e 16 39
e 16 41
e 16 46
e 16 47
e 16 48
e 16 49
e 16 51
e 16 53
e 16 57
e 17 18
e 17 24
e 17 29
e 17 32
e 17 35
e 17 36
e 17 37
e 17 38
e 17 39
e 17 40
e 17 42
e 17 43
e 17 44
e 17 46
e 17 47
e 17 48
e 17 50
e 17 51
e 17 55
e 17 56
e 17 57
e 18 19
e 18 20
e 18 21
e 18 22
e 18 23
e 18 28
e 18 30
e 18 33
e 18 34
e 18 35
e 18 37
e 18 38
e 18 40
e 18 45
e 18 47
e 18 49
e 18 50
e 18 52
e 18 54
e 18 55
e 18 56
e 18 57
e 18 58
e 19 20
e 19 21
e 19 25
e 19 26
e 19 27
e 19 28
e 19 29
e 19 35
e 19 39
e 19 40
e 19 41
e 19 46
e 19 47
e 19 49
e 19 52
e 19 53
e 19 56
e 19 58
e 20 26
e 20 27
e 20 29
e 20 30
e 20 32
e 20 34
e 20 35
e 20 39
e 20 40
e 20 41
e 20 45
e 20 48
e 20 52
e 20 53
e 20 54
e 20 55
e 20 56
e 20 57
e 20 58
e 21 22
e 21 23
e 21 25
e 21 27
e 21 28
e 21 29
e 21 30
e 21 32
e 21 35
e 21 38
e 21 43
e 21 45
e 21 46
e 21 48
e 21 49
e 21 50
e 21 53
e 21 54
e 21 56
e 22 23
e 22 26
e 22 27
e 22 30
e 22 32
e 22 33
e 22 35
e 22 37
e 22 42
e 22 45
e 22 46
e 22 48
e 22 56
e 22 58
e 23 28
e 23 33
e 23 36
e 23 37
e 23 41
e 23 42
e 23 43
e 23 44
e 23 45
e 23 46
e 23 47
e 23 48
e 23 50
e 23 51
e 23 52
e 23 53
e 23 57
e 24 25
e 24 27
e 24 32
e 24 33
e 24 35
e 24 36
e 24 38
e 24 44
e 24 45
e 24 46
e 24 48
e 24 51
e 24 53
e 24 54
e 24 58
e 25 27
e 25 28
e 25 30
e 25 34
e 25 36
e 25 37
e 25 39
e 25 40
e 25 42
e 25 43
e 25 44
e 25 45
e 25 46
e 25 47
e 25 48
e 25 49
e 25 52
e 25 57
e 25 58
e 26 29
e 26 30
e 26 32
e 26 33
e 26 36
e 26 38
e 26 39
e 26 40
e 26 41
e 26 42
e 26 43
e 26 44
e 26 49
e 26 52
e 26 54
e 26 55
e 26 56
e 26 58
e 27 29
e 27 31
e 27 32
e 27 33
e 27 38
e 27 39
e 27 40
e 27 41
e 27 43
e 27 44
e 27 46
e 27 47
e 27 49
e 27 52
e 27 56
e 28 33
e 28 34
e 28 36
e 28 38
e 28 39
e 28 40
e 28 41
e 28 47
e 28 48
e 28 49
e 28 51
e 28 53
e 28 55
e 29 36
e 29 37
e 29 39
e 29 44
e 29 49
e 29 50
e 29 51
e 29 55
e 29 56
e 30 31
e 30 33
e 30 38
e 30 41
e 30 45
e 30 47
e 30 49
e 30 50
e 30 51
e 30 54
e 31 35
e 31 36
e 31 37
e 31 38
e 31 40
e 31 42
e 31 43
e 31 56
e 31 57
e 32 33
e 32 34
e 32 38
e 32 40
e 32 44
e 32 45
e 32 47
e 32 48
e 32 53
e 32 54
e 32 55
e 32 56
e 32 57
e 33 35
e 33 36
e 33 42
e 33 43
e 33 47
e 33 48
e 33 51
e 33 52
e 33 53
e 33 54
e 33 55
e 33 56
e 34 37
e 34 38
e 34 41
e 34 42
e 34 43
e 34 45
e 34 46
e 34 49
e 34 51
e 34 52
e 34 53
e 34 55
e 35 36
e 35 39
e 35 42
e 35 43
e 35 46
e 35 50
e 35 52
e 35 54
e 36 37
e 36 38
e 36 39
e 36 40
e 36 41
e 36 42
e 36 43
e 36 46
e 36 49
e 36 50
e 36 54
e 36 55
e 36 58
e 37 41
e 37 42
e 37 46
e 37 47
e 37 48
e 37 49
e 37 51
e 37 54
e 37 57
e 38 39
e 38 40
e 38 43
e 38 52
e 38 56
e 38 57
e 38 58
e 39 44
e 39 46
e 39 50
e 39 52
e 39 53
e 39 58
e 40 43
e 40 46
e 40 47
e 40 52
e 40 55
e 40 57
e 40 58
e 41 46
e 41 47
e 41 49
e 41 50
e 41 52
e 41 53
e 41 54
e 41 55
e 41 58
e 42 45
e 42 46
e 42 50
e 42 51
e 42 54
e 43 47
e 43 48
e 43 50
e 43 52
e 43 55
e 43 57
e 44 49
e 44 51
e 44 53
e 45 48
e 45 49
e 45 51
e 45 52
e 45 53
e 45 56
e 45 57
e 46 47
e 46 49
e 46 51
e 46 53
e 46 54
e 46 57
e 47 50
e 47 52
e 47 54
e 47 56
e 47 57
e 47 58
e 48 50
e 48 51
e 48 53
e 48 55
e 49 52
e 49 53
e 49 54
e 49 56
e 49 57
e 50 51
e 50 52
e 50 53
e 50 57
e 51 52
e 51 55
e 51 57
e 51 58
e 52 53
e 52 54
e 52 55
e 52 57
e 52 58
e 53 55
e 53 56
e 54 56
e 54 57
e 55 57
e 56 58
e 57 58
